C4
1.0
       51.2132797241         0.0000000000         0.0000000000
        0.0000000000        51.7440000000         0.0000000000
        0.0000000000         0.0000000000        20.0000000000
    C
 1008
Direct
     0.013888833         0.023809524         0.000000000
     0.013888833         0.071428574         0.000000000
     0.013888833         0.119047617         0.000000000
     0.013888833         0.166666679         0.000000000
     0.013888833         0.214285722         0.000000000
     0.013888833         0.261904784         0.000000000
     0.013888833         0.309523827         0.000000000
     0.013888833         0.357142852         0.000000000
     0.013888833         0.404761914         0.000000000
     0.013888833         0.452380938         0.000000000
     0.013888833         0.500000000         0.000000000
     0.013888833         0.547619062         0.000000000
     0.013888833         0.595238086         0.000000000
     0.013888833         0.642857148         0.000000000
     0.013888833         0.690476210         0.000000000
     0.013888833         0.738095198         0.000000000
     0.013888833         0.785714259         0.000000000
     0.013888833         0.833333321         0.000000000
     0.013888833         0.880952383         0.000000000
     0.013888833         0.928571371         0.000000000
     0.013888833         0.976190432         0.000000000
     0.097222164         0.023809524         0.000000000
     0.097222164         0.071428574         0.000000000
     0.097222164         0.119047617         0.000000000
     0.097222164         0.166666679         0.000000000
     0.097222164         0.214285722         0.000000000
     0.097222164         0.261904784         0.000000000
     0.097222164         0.309523827         0.000000000
     0.097222164         0.357142852         0.000000000
     0.097222164         0.404761914         0.000000000
     0.097222164         0.452380938         0.000000000
     0.097222164         0.500000000         0.000000000
     0.097222164         0.547619062         0.000000000
     0.097222164         0.595238086         0.000000000
     0.097222164         0.642857148         0.000000000
     0.097222164         0.690476210         0.000000000
     0.097222164         0.738095198         0.000000000
     0.097222164         0.785714259         0.000000000
     0.097222164         0.833333321         0.000000000
     0.097222164         0.880952383         0.000000000
     0.097222164         0.928571371         0.000000000
     0.097222164         0.976190432         0.000000000
     0.180555485         0.023809524         0.000000000
     0.180555485         0.071428574         0.000000000
     0.180555485         0.119047617         0.000000000
     0.180555485         0.166666679         0.000000000
     0.180555485         0.214285722         0.000000000
     0.180555485         0.261904784         0.000000000
     0.180555485         0.309523827         0.000000000
     0.180555485         0.357142852         0.000000000
     0.180555485         0.404761914         0.000000000
     0.180555485         0.452380938         0.000000000
     0.180555485         0.500000000         0.000000000
     0.180555485         0.547619062         0.000000000
     0.180555485         0.595238086         0.000000000
     0.180555485         0.642857148         0.000000000
     0.180555485         0.690476210         0.000000000
     0.180555485         0.738095198         0.000000000
     0.180555485         0.785714259         0.000000000
     0.180555485         0.833333321         0.000000000
     0.180555485         0.880952383         0.000000000
     0.180555485         0.928571371         0.000000000
     0.180555485         0.976190432         0.000000000
     0.263888843         0.023809524         0.000000000
     0.263888843         0.071428574         0.000000000
     0.263888843         0.119047617         0.000000000
     0.263888843         0.166666679         0.000000000
     0.263888843         0.214285722         0.000000000
     0.263888843         0.261904784         0.000000000
     0.263888843         0.309523827         0.000000000
     0.263888843         0.357142852         0.000000000
     0.263888843         0.404761914         0.000000000
     0.263888843         0.452380938         0.000000000
     0.263888843         0.500000000         0.000000000
     0.263888843         0.547619062         0.000000000
     0.263888843         0.595238086         0.000000000
     0.263888843         0.642857148         0.000000000
     0.263888843         0.690476210         0.000000000
     0.263888843         0.738095198         0.000000000
     0.263888843         0.785714259         0.000000000
     0.263888843         0.833333321         0.000000000
     0.263888843         0.880952383         0.000000000
     0.263888843         0.928571371         0.000000000
     0.263888843         0.976190432         0.000000000
     0.347222183         0.023809524         0.000000000
     0.347222183         0.071428574         0.000000000
     0.347222183         0.119047617         0.000000000
     0.347222183         0.166666679         0.000000000
     0.347222183         0.214285722         0.000000000
     0.347222183         0.261904784         0.000000000
     0.347222183         0.309523827         0.000000000
     0.347222183         0.357142852         0.000000000
     0.347222183         0.404761914         0.000000000
     0.347222183         0.452380938         0.000000000
     0.347222183         0.500000000         0.000000000
     0.347222183         0.547619062         0.000000000
     0.347222183         0.595238086         0.000000000
     0.347222183         0.642857148         0.000000000
     0.347222183         0.690476210         0.000000000
     0.347222183         0.738095198         0.000000000
     0.347222183         0.785714259         0.000000000
     0.347222183         0.833333321         0.000000000
     0.347222183         0.880952383         0.000000000
     0.347222183         0.928571371         0.000000000
     0.347222183         0.976190432         0.000000000
     0.430555504         0.023809524         0.000000000
     0.430555504         0.071428574         0.000000000
     0.430555504         0.119047617         0.000000000
     0.430555504         0.166666679         0.000000000
     0.430555504         0.214285722         0.000000000
     0.430555504         0.261904784         0.000000000
     0.430555504         0.309523827         0.000000000
     0.430555504         0.357142852         0.000000000
     0.430555504         0.404761914         0.000000000
     0.430555504         0.452380938         0.000000000
     0.430555504         0.500000000         0.000000000
     0.430555504         0.547619062         0.000000000
     0.430555504         0.595238086         0.000000000
     0.430555504         0.642857148         0.000000000
     0.430555504         0.690476210         0.000000000
     0.430555504         0.738095198         0.000000000
     0.430555504         0.785714259         0.000000000
     0.430555504         0.833333321         0.000000000
     0.430555504         0.880952383         0.000000000
     0.430555504         0.928571371         0.000000000
     0.430555504         0.976190432         0.000000000
     0.513888825         0.023809524         0.000000000
     0.513888825         0.071428574         0.000000000
     0.513888825         0.119047617         0.000000000
     0.513888825         0.166666679         0.000000000
     0.513888825         0.214285722         0.000000000
     0.513888825         0.261904784         0.000000000
     0.513888825         0.309523827         0.000000000
     0.513888825         0.357142852         0.000000000
     0.513888825         0.404761914         0.000000000
     0.513888825         0.452380938         0.000000000
     0.513888825         0.500000000         0.000000000
     0.513888825         0.547619062         0.000000000
     0.513888825         0.595238086         0.000000000
     0.513888825         0.642857148         0.000000000
     0.513888825         0.690476210         0.000000000
     0.513888825         0.738095198         0.000000000
     0.513888825         0.785714259         0.000000000
     0.513888825         0.833333321         0.000000000
     0.513888825         0.880952383         0.000000000
     0.513888825         0.928571371         0.000000000
     0.513888825         0.976190432         0.000000000
     0.597222146         0.023809524         0.000000000
     0.597222146         0.071428574         0.000000000
     0.597222146         0.119047617         0.000000000
     0.597222146         0.166666679         0.000000000
     0.597222146         0.214285722         0.000000000
     0.597222146         0.261904784         0.000000000
     0.597222146         0.309523827         0.000000000
     0.597222146         0.357142852         0.000000000
     0.597222146         0.404761914         0.000000000
     0.597222146         0.452380938         0.000000000
     0.597222146         0.500000000         0.000000000
     0.597222146         0.547619062         0.000000000
     0.597222146         0.595238086         0.000000000
     0.597222146         0.642857148         0.000000000
     0.597222146         0.690476210         0.000000000
     0.597222146         0.738095198         0.000000000
     0.597222146         0.785714259         0.000000000
     0.597222146         0.833333321         0.000000000
     0.597222146         0.880952383         0.000000000
     0.597222146         0.928571371         0.000000000
     0.597222146         0.976190432         0.000000000
     0.680555541         0.023809524         0.000000000
     0.680555541         0.071428574         0.000000000
     0.680555541         0.119047617         0.000000000
     0.680555541         0.166666679         0.000000000
     0.680555541         0.214285722         0.000000000
     0.680555541         0.261904784         0.000000000
     0.680555541         0.309523827         0.000000000
     0.680555541         0.357142852         0.000000000
     0.680555541         0.404761914         0.000000000
     0.680555541         0.452380938         0.000000000
     0.680555541         0.500000000         0.000000000
     0.680555541         0.547619062         0.000000000
     0.680555541         0.595238086         0.000000000
     0.680555541         0.642857148         0.000000000
     0.680555541         0.690476210         0.000000000
     0.680555541         0.738095198         0.000000000
     0.680555541         0.785714259         0.000000000
     0.680555541         0.833333321         0.000000000
     0.680555541         0.880952383         0.000000000
     0.680555541         0.928571371         0.000000000
     0.680555541         0.976190432         0.000000000
     0.763888862         0.023809524         0.000000000
     0.763888862         0.071428574         0.000000000
     0.763888862         0.119047617         0.000000000
     0.763888862         0.166666679         0.000000000
     0.763888862         0.214285722         0.000000000
     0.763888862         0.261904784         0.000000000
     0.763888862         0.309523827         0.000000000
     0.763888862         0.357142852         0.000000000
     0.763888862         0.404761914         0.000000000
     0.763888862         0.452380938         0.000000000
     0.763888862         0.500000000         0.000000000
     0.763888862         0.547619062         0.000000000
     0.763888862         0.595238086         0.000000000
     0.763888862         0.642857148         0.000000000
     0.763888862         0.690476210         0.000000000
     0.763888862         0.738095198         0.000000000
     0.763888862         0.785714259         0.000000000
     0.763888862         0.833333321         0.000000000
     0.763888862         0.880952383         0.000000000
     0.763888862         0.928571371         0.000000000
     0.763888862         0.976190432         0.000000000
     0.847222183         0.023809524         0.000000000
     0.847222183         0.071428574         0.000000000
     0.847222183         0.119047617         0.000000000
     0.847222183         0.166666679         0.000000000
     0.847222183         0.214285722         0.000000000
     0.847222183         0.261904784         0.000000000
     0.847222183         0.309523827         0.000000000
     0.847222183         0.357142852         0.000000000
     0.847222183         0.404761914         0.000000000
     0.847222183         0.452380938         0.000000000
     0.847222183         0.500000000         0.000000000
     0.847222183         0.547619062         0.000000000
     0.847222183         0.595238086         0.000000000
     0.847222183         0.642857148         0.000000000
     0.847222183         0.690476210         0.000000000
     0.847222183         0.738095198         0.000000000
     0.847222183         0.785714259         0.000000000
     0.847222183         0.833333321         0.000000000
     0.847222183         0.880952383         0.000000000
     0.847222183         0.928571371         0.000000000
     0.847222183         0.976190432         0.000000000
     0.930555504         0.023809524         0.000000000
     0.930555504         0.071428574         0.000000000
     0.930555504         0.119047617         0.000000000
     0.930555504         0.166666679         0.000000000
     0.930555504         0.214285722         0.000000000
     0.930555504         0.261904784         0.000000000
     0.930555504         0.309523827         0.000000000
     0.930555504         0.357142852         0.000000000
     0.930555504         0.404761914         0.000000000
     0.930555504         0.452380938         0.000000000
     0.930555504         0.500000000         0.000000000
     0.930555504         0.547619062         0.000000000
     0.930555504         0.595238086         0.000000000
     0.930555504         0.642857148         0.000000000
     0.930555504         0.690476210         0.000000000
     0.930555504         0.738095198         0.000000000
     0.930555504         0.785714259         0.000000000
     0.930555504         0.833333321         0.000000000
     0.930555504         0.880952383         0.000000000
     0.930555504         0.928571371         0.000000000
     0.930555504         0.976190432         0.000000000
     0.055555583         0.000000000         0.000000000
     0.055555583         0.047619048         0.000000000
     0.055555583         0.095238096         0.000000000
     0.055555583         0.142857148         0.000000000
     0.055555583         0.190476191         0.000000000
     0.055555583         0.238095235         0.000000000
     0.055555583         0.285714296         0.000000000
     0.055555583         0.333333358         0.000000000
     0.055555583         0.380952383         0.000000000
     0.055555583         0.428571444         0.000000000
     0.055555583         0.476190469         0.000000000
     0.055555583         0.523809568         0.000000000
     0.055555583         0.571428592         0.000000000
     0.055555583         0.619047654         0.000000000
     0.055555583         0.666666716         0.000000000
     0.055555583         0.714285704         0.000000000
     0.055555583         0.761904765         0.000000000
     0.055555583         0.809523827         0.000000000
     0.055555583         0.857142889         0.000000000
     0.055555583         0.904761877         0.000000000
     0.055555583         0.952380938         0.000000000
     0.138888909         0.000000000         0.000000000
     0.138888909         0.047619048         0.000000000
     0.138888909         0.095238096         0.000000000
     0.138888909         0.142857148         0.000000000
     0.138888909         0.190476191         0.000000000
     0.138888909         0.238095235         0.000000000
     0.138888909         0.285714296         0.000000000
     0.138888909         0.333333358         0.000000000
     0.138888909         0.380952383         0.000000000
     0.138888909         0.428571444         0.000000000
     0.138888909         0.476190469         0.000000000
     0.138888909         0.523809568         0.000000000
     0.138888909         0.571428592         0.000000000
     0.138888909         0.619047654         0.000000000
     0.138888909         0.666666716         0.000000000
     0.138888909         0.714285704         0.000000000
     0.138888909         0.761904765         0.000000000
     0.138888909         0.809523827         0.000000000
     0.138888909         0.857142889         0.000000000
     0.138888909         0.904761877         0.000000000
     0.138888909         0.952380938         0.000000000
     0.222222257         0.000000000         0.000000000
     0.222222257         0.047619048         0.000000000
     0.222222257         0.095238096         0.000000000
     0.222222257         0.142857148         0.000000000
     0.222222257         0.190476191         0.000000000
     0.222222257         0.238095235         0.000000000
     0.222222257         0.285714296         0.000000000
     0.222222257         0.333333358         0.000000000
     0.222222257         0.380952383         0.000000000
     0.222222257         0.428571444         0.000000000
     0.222222257         0.476190469         0.000000000
     0.222222257         0.523809568         0.000000000
     0.222222257         0.571428592         0.000000000
     0.222222257         0.619047654         0.000000000
     0.222222257         0.666666716         0.000000000
     0.222222257         0.714285704         0.000000000
     0.222222257         0.761904765         0.000000000
     0.222222257         0.809523827         0.000000000
     0.222222257         0.857142889         0.000000000
     0.222222257         0.904761877         0.000000000
     0.222222257         0.952380938         0.000000000
     0.305555578         0.000000000         0.000000000
     0.305555578         0.047619048         0.000000000
     0.305555578         0.095238096         0.000000000
     0.305555578         0.142857148         0.000000000
     0.305555578         0.190476191         0.000000000
     0.305555578         0.238095235         0.000000000
     0.305555578         0.285714296         0.000000000
     0.305555578         0.333333358         0.000000000
     0.305555578         0.380952383         0.000000000
     0.305555578         0.428571444         0.000000000
     0.305555578         0.476190469         0.000000000
     0.305555578         0.523809568         0.000000000
     0.305555578         0.571428592         0.000000000
     0.305555578         0.619047654         0.000000000
     0.305555578         0.666666716         0.000000000
     0.305555578         0.714285704         0.000000000
     0.305555578         0.761904765         0.000000000
     0.305555578         0.809523827         0.000000000
     0.305555578         0.857142889         0.000000000
     0.305555578         0.904761877         0.000000000
     0.305555578         0.952380938         0.000000000
     0.388888918         0.000000000         0.000000000
     0.388888918         0.047619048         0.000000000
     0.388888918         0.095238096         0.000000000
     0.388888918         0.142857148         0.000000000
     0.388888918         0.190476191         0.000000000
     0.388888918         0.238095235         0.000000000
     0.388888918         0.285714296         0.000000000
     0.388888918         0.333333358         0.000000000
     0.388888918         0.380952383         0.000000000
     0.388888918         0.428571444         0.000000000
     0.388888918         0.476190469         0.000000000
     0.388888918         0.523809568         0.000000000
     0.388888918         0.571428592         0.000000000
     0.388888918         0.619047654         0.000000000
     0.388888918         0.666666716         0.000000000
     0.388888918         0.714285704         0.000000000
     0.388888918         0.761904765         0.000000000
     0.388888918         0.809523827         0.000000000
     0.388888918         0.857142889         0.000000000
     0.388888918         0.904761877         0.000000000
     0.388888918         0.952380938         0.000000000
     0.472222239         0.000000000         0.000000000
     0.472222239         0.047619048         0.000000000
     0.472222239         0.095238096         0.000000000
     0.472222239         0.142857148         0.000000000
     0.472222239         0.190476191         0.000000000
     0.472222239         0.238095235         0.000000000
     0.472222239         0.285714296         0.000000000
     0.472222239         0.333333358         0.000000000
     0.472222239         0.380952383         0.000000000
     0.472222239         0.428571444         0.000000000
     0.472222239         0.476190469         0.000000000
     0.472222239         0.523809568         0.000000000
     0.472222239         0.571428592         0.000000000
     0.472222239         0.619047654         0.000000000
     0.472222239         0.666666716         0.000000000
     0.472222239         0.714285704         0.000000000
     0.472222239         0.761904765         0.000000000
     0.472222239         0.809523827         0.000000000
     0.472222239         0.857142889         0.000000000
     0.472222239         0.904761877         0.000000000
     0.472222239         0.952380938         0.000000000
     0.555555597         0.000000000         0.000000000
     0.555555597         0.047619048         0.000000000
     0.555555597         0.095238096         0.000000000
     0.555555597         0.142857148         0.000000000
     0.555555597         0.190476191         0.000000000
     0.555555597         0.238095235         0.000000000
     0.555555597         0.285714296         0.000000000
     0.555555597         0.333333358         0.000000000
     0.555555597         0.380952383         0.000000000
     0.555555597         0.428571444         0.000000000
     0.555555597         0.476190469         0.000000000
     0.555555597         0.523809568         0.000000000
     0.555555597         0.571428592         0.000000000
     0.555555597         0.619047654         0.000000000
     0.555555597         0.666666716         0.000000000
     0.555555597         0.714285704         0.000000000
     0.555555597         0.761904765         0.000000000
     0.555555597         0.809523827         0.000000000
     0.555555597         0.857142889         0.000000000
     0.555555597         0.904761877         0.000000000
     0.555555597         0.952380938         0.000000000
     0.638888918         0.000000000         0.000000000
     0.638888918         0.047619048         0.000000000
     0.638888918         0.095238096         0.000000000
     0.638888918         0.142857148         0.000000000
     0.638888918         0.190476191         0.000000000
     0.638888918         0.238095235         0.000000000
     0.638888918         0.285714296         0.000000000
     0.638888918         0.333333358         0.000000000
     0.638888918         0.380952383         0.000000000
     0.638888918         0.428571444         0.000000000
     0.638888918         0.476190469         0.000000000
     0.638888918         0.523809568         0.000000000
     0.638888918         0.571428592         0.000000000
     0.638888918         0.619047654         0.000000000
     0.638888918         0.666666716         0.000000000
     0.638888918         0.714285704         0.000000000
     0.638888918         0.761904765         0.000000000
     0.638888918         0.809523827         0.000000000
     0.638888918         0.857142889         0.000000000
     0.638888918         0.904761877         0.000000000
     0.638888918         0.952380938         0.000000000
     0.722222239         0.000000000         0.000000000
     0.722222239         0.047619048         0.000000000
     0.722222239         0.095238096         0.000000000
     0.722222239         0.142857148         0.000000000
     0.722222239         0.190476191         0.000000000
     0.722222239         0.238095235         0.000000000
     0.722222239         0.285714296         0.000000000
     0.722222239         0.333333358         0.000000000
     0.722222239         0.380952383         0.000000000
     0.722222239         0.428571444         0.000000000
     0.722222239         0.476190469         0.000000000
     0.722222239         0.523809568         0.000000000
     0.722222239         0.571428592         0.000000000
     0.722222239         0.619047654         0.000000000
     0.722222239         0.666666716         0.000000000
     0.722222239         0.714285704         0.000000000
     0.722222239         0.761904765         0.000000000
     0.722222239         0.809523827         0.000000000
     0.722222239         0.857142889         0.000000000
     0.722222239         0.904761877         0.000000000
     0.722222239         0.952380938         0.000000000
     0.805555560         0.000000000         0.000000000
     0.805555560         0.047619048         0.000000000
     0.805555560         0.095238096         0.000000000
     0.805555560         0.142857148         0.000000000
     0.805555560         0.190476191         0.000000000
     0.805555560         0.238095235         0.000000000
     0.805555560         0.285714296         0.000000000
     0.805555560         0.333333358         0.000000000
     0.805555560         0.380952383         0.000000000
     0.805555560         0.428571444         0.000000000
     0.805555560         0.476190469         0.000000000
     0.805555560         0.523809568         0.000000000
     0.805555560         0.571428592         0.000000000
     0.805555560         0.619047654         0.000000000
     0.805555560         0.666666716         0.000000000
     0.805555560         0.714285704         0.000000000
     0.805555560         0.761904765         0.000000000
     0.805555560         0.809523827         0.000000000
     0.805555560         0.857142889         0.000000000
     0.805555560         0.904761877         0.000000000
     0.805555560         0.952380938         0.000000000
     0.888888881         0.000000000         0.000000000
     0.888888881         0.047619048         0.000000000
     0.888888881         0.095238096         0.000000000
     0.888888881         0.142857148         0.000000000
     0.888888881         0.190476191         0.000000000
     0.888888881         0.238095235         0.000000000
     0.888888881         0.285714296         0.000000000
     0.888888881         0.333333358         0.000000000
     0.888888881         0.380952383         0.000000000
     0.888888881         0.428571444         0.000000000
     0.888888881         0.476190469         0.000000000
     0.888888881         0.523809568         0.000000000
     0.888888881         0.571428592         0.000000000
     0.888888881         0.619047654         0.000000000
     0.888888881         0.666666716         0.000000000
     0.888888881         0.714285704         0.000000000
     0.888888881         0.761904765         0.000000000
     0.888888881         0.809523827         0.000000000
     0.888888881         0.857142889         0.000000000
     0.888888881         0.904761877         0.000000000
     0.888888881         0.952380938         0.000000000
     0.972222276         0.000000000         0.000000000
     0.972222276         0.047619048         0.000000000
     0.972222276         0.095238096         0.000000000
     0.972222276         0.142857148         0.000000000
     0.972222276         0.190476191         0.000000000
     0.972222276         0.238095235         0.000000000
     0.972222276         0.285714296         0.000000000
     0.972222276         0.333333358         0.000000000
     0.972222276         0.380952383         0.000000000
     0.972222276         0.428571444         0.000000000
     0.972222276         0.476190469         0.000000000
     0.972222276         0.523809568         0.000000000
     0.972222276         0.571428592         0.000000000
     0.972222276         0.619047654         0.000000000
     0.972222276         0.666666716         0.000000000
     0.972222276         0.714285704         0.000000000
     0.972222276         0.761904765         0.000000000
     0.972222276         0.809523827         0.000000000
     0.972222276         0.857142889         0.000000000
     0.972222276         0.904761877         0.000000000
     0.972222276         0.952380938         0.000000000
     0.027777747         0.000000000         0.000000000
     0.027777747         0.047619048         0.000000000
     0.027777747         0.095238096         0.000000000
     0.027777747         0.142857148         0.000000000
     0.027777747         0.190476191         0.000000000
     0.027777747         0.238095235         0.000000000
     0.027777747         0.285714296         0.000000000
     0.027777747         0.333333358         0.000000000
     0.027777747         0.380952383         0.000000000