C4
1.0
        4.2677731514         0.0000000000         0.0000000000
        0.0000000000         2.4640000000         0.0000000000
        0.0000000000         0.0000000000        20.0000000000
    C
    4
Direct
     0.166666001         0.500000000         0.000000000
     0.666666965         0.000000000         0.000000000
     0.333332980         0.000000000         0.000000000
     0.833333035         0.500000000         0.000000000
