POSCAR
1.0
     21.338865280200	     0.000000000000	     0.000000000000	
     0.000000000000	     22.176000000000	     0.000000000000	
     0.000000000000	     0.000000000000	     20.000000000000	
    C
   180
Direct
    0.029899607993    0.045240263929    0.000000000000
    0.032036512480    0.167796601460    0.000000000000
    0.035701662654    0.278810676114    0.000000000000
    0.033552830217    0.386770255292    0.000000000000
    0.024389031590    0.497560199714    0.000000000000
    0.031751798632    0.601461986974    0.000000000000
    0.033518515069    0.722287729567    0.000000000000
    0.032885858630    0.834522858934    0.000000000000
    0.038429908552    0.944511896062    0.000000000000
    0.233333128563    0.058040369263    0.000000000000
    0.234585312619    0.170113369663    0.000000000000
    0.232727004405    0.277276449094    0.000000000000
    0.229375959636    0.390097120624    0.000000000000
    0.231609421660    0.498923432670    0.000000000000
    0.230863892034    0.614769311158    0.000000000000
    0.233659602728    0.722529139981    0.000000000000
    0.234513396111    0.831958321732    0.000000000000
    0.230985194602    0.943302663968    0.000000000000
    0.433602898529    0.054377807136    0.000000000000
    0.434397106832    0.171587370443    0.000000000000
    0.432614479772    0.277454708421    0.000000000000
    0.435151235040    0.392183333445    0.000000000000
    0.437117082772    0.500974005542    0.000000000000
    0.435095646352    0.616222024490    0.000000000000
    0.435244639852    0.716665341512    0.000000000000
    0.428744208753    0.832022375004    0.000000000000
    0.431680905904    0.943047544284    0.000000000000
    0.631516596613    0.060921743467    0.000000000000
    0.632390347671    0.170102799700    0.000000000000
    0.633997607647    0.276829934658    0.000000000000
    0.632709798254    0.389610548898    0.000000000000
    0.623937489021    0.502397502252    0.000000000000
    0.634164967235    0.612146803321    0.000000000000
    0.632450701056    0.716853166610    0.000000000000
    0.632889013715    0.831808999930    0.000000000000
    0.631945747915    0.944112625272    0.000000000000
    0.832606052720    0.056594695589    0.000000000000
    0.831566110147    0.170343526022    0.000000000000
    0.832036285481    0.277382422299    0.000000000000
    0.832154971329    0.390589922122    0.000000000000
    0.832974792321    0.495605466461    0.000000000000
    0.831065538862    0.610950827392    0.000000000000
    0.833190736101    0.721075589381    0.000000000000
    0.832263969978    0.831109998716    0.000000000000
    0.837451781150    0.946737546038    0.000000000000
    0.133008926670    -0.001112627308    0.000000000000
    0.121718416790    0.111915129064    0.000000000000
    0.131638754631    0.225570356695    0.000000000000
    0.134162296691    0.331724834226    0.000000000000
    0.131219836187    0.442775221541    0.000000000000
    0.135276223498    0.555735875936    0.000000000000
    0.129671306726    0.666401728916    0.000000000000
    0.130771365013    0.777205774728    0.000000000000
    0.138432646891    0.891212963934    0.000000000000
    0.331228357280    -0.000521729310    0.000000000000
    0.337194746221    0.120714400802    0.000000000000
    0.332495165157    0.223023960252    0.000000000000
    0.333969247423    0.333333586773    0.000000000000
    0.331824563561    0.445302677344    0.000000000000
    0.329954778053    0.556677297977    0.000000000000
    0.330929070175    0.671124997458    0.000000000000
    0.331410215249    0.778571645907    0.000000000000
    0.329361058074    0.888091729670    0.000000000000
    0.538341794568    0.002077711890    0.000000000000
    0.523677674631    0.113595476908    0.000000000000
    0.534696742546    0.213460950647    0.000000000000
    0.532931666901    0.336785373241    0.000000000000
    0.527639816922    0.448105626059    0.000000000000
    0.531831121762    0.553979289833    0.000000000000
    0.536880686897    0.664948950824    0.000000000000
    0.534075709297    0.781373418059    0.000000000000
    0.536706721526    0.889861586185    0.000000000000
    0.731680892094    0.001106050057    0.000000000000
    0.733935397298    0.112506040388    0.000000000000
    0.742722890650    0.220958558330    0.000000000000
    0.730803121514    0.322526394236    0.000000000000
    0.735558340498    0.449474789565    0.000000000000
    0.733986986107    0.557378525024    0.000000000000
    0.729951270079    0.665324220394    0.000000000000
    0.729724146028    0.776973318470    0.000000000000
    0.734919361012    0.889551932891    0.000000000000
    0.928181341882    -0.000146946418    0.000000000000
    0.933351067436    0.112245227190    0.000000000000
    0.935943052333    0.216243724492    0.000000000000
    0.929543373423    0.338136656858    0.000000000000
    0.935442776642    0.444065017688    0.000000000000
    0.934231838869    0.555938327712    0.000000000000
    0.932932303632    0.667254486264    0.000000000000
    0.933545232829    0.782062756138    0.000000000000
    0.932310384818    0.886628146656    0.000000000000
    0.060110095080    0.009598345685    0.000000000000
    0.065799342244    0.120242507555    0.000000000000
    0.065669217329    0.221851513064    0.000000000000
    0.069184850128    0.331844123947    0.000000000000
    0.068679930366    0.443891370389    0.000000000000
    0.064902981604    0.554693454313    0.000000000000
    0.071158578562    0.670170652957    0.000000000000
    0.064720919111    0.781055572382    0.000000000000
    0.065806592901    0.889331174306    0.000000000000
    0.266309289937    -0.005069223442    0.000000000000
    0.255392721761    0.111143591305    0.000000000000
    0.266723229328    0.224194760506    0.000000000000
    0.268645636132    0.332031840018    0.000000000000
    0.268060265728    0.447748807989    0.000000000000
    0.264645494121    0.561927500136    0.000000000000
    0.262439877761    0.658047690187    0.000000000000
    0.261259428205    0.779706350269    0.000000000000
    0.267366303661    0.885016988894    0.000000000000
    0.466644183192    0.000451231098    0.000000000000
    0.467473912621    0.110723235277    0.000000000000
    0.470574928650    0.213040604351    0.000000000000
    0.467562149165    0.334750493195    0.000000000000
    0.466957870972    0.446980478699    0.000000000000
    0.463096408527    0.556230643418    0.000000000000
    0.470937887343    0.667376567857    0.000000000000
    0.461716576608    0.779109366228    0.000000000000
    0.465786446399    0.889531614978    0.000000000000
    0.655663882357    -0.000350442024    0.000000000000
    0.668326600139    0.109516547997    0.000000000000
    0.662103562964    0.223547494483    0.000000000000
    0.662706759682    0.338150093360    0.000000000000
    0.668077250774    0.442641770138    0.000000000000
    0.671001087804    0.559572937249    0.000000000000
    0.663125174791    0.676242710499    0.000000000000
    0.666559330806    0.775330072650    0.000000000000
    0.662886474237    0.887701558296    0.000000000000
    0.871850151761    -0.003438986735    0.000000000000
    0.870392105507    0.110587675678    0.000000000000
    0.867757675988    0.222928107417    0.000000000000
    0.868707187670    0.335371557543    0.000000000000
    0.867848818099    0.443796542430    0.000000000000
    0.865622171437    0.555408409271    0.000000000000
    0.865165767589    0.665490369077    0.000000000000
    0.862808499833    0.773740642442    0.000000000000
    0.876716149959    0.889732031574    0.000000000000
    0.162805721051    0.046508197057    0.000000000000
    0.166549290619    0.160943497221    0.000000000000
    0.171967875994    0.277139825503    0.000000000000
    0.166955164228    0.386753965852    0.000000000000
    0.162653031163    0.496754407129    0.000000000000
    0.164331117846    0.612287252254    0.000000000000
    0.165817661882    0.721421748659    0.000000000000
    0.167536838591    0.832795667622    0.000000000000
    0.162587653664    0.950574805413    0.000000000000
    0.367972852940    0.057475904322    0.000000000000
    0.368048423917    0.167927143822    0.000000000000
    0.370231424127    0.278863667211    0.000000000000
    0.362431193747    0.384707321018    0.000000000000
    0.368129743720    0.498338498672    0.000000000000
    0.367987323850    0.611455030774    0.000000000000
    0.365170913157    0.712160187258    0.000000000000
    0.366615466048    0.833933691067    0.000000000000
    0.363207254104    0.948566324283    0.000000000000
    0.564312776141    0.056345929135    0.000000000000
    0.567044521960    0.169907437802    0.000000000000
    0.567936889098    0.282521089022    0.000000000000
    0.563018039835    0.384875310167    0.000000000000
    0.564248360126    0.499454670404    0.000000000000
    0.568927571848    0.611757466630    0.000000000000
    0.571035394513    0.727305961108    0.000000000000
    0.566099576704    0.831398824287    0.000000000000
    0.561298166500    0.940603320229    0.000000000000
    0.761180948448    0.056401032683    0.000000000000
    0.768780320430    0.165553704434    0.000000000000
    0.764318353616    0.275394691556    0.000000000000
    0.770810363054    0.378721122599    0.000000000000
    0.769040995886    0.495887380255    0.000000000000
    0.767881302784    0.609861416563    0.000000000000
    0.770143371007    0.723163502754    0.000000000000
    0.773142740098    0.829457972148    0.000000000000
    0.765571553001    0.945541121051    0.000000000000
    0.965552009180    0.057981449435    0.000000000000
    0.972288814529    0.167743610681    0.000000000000
    0.970526917904    0.278641057887    0.000000000000
    0.965429526418    0.386926361949    0.000000000000
    0.964133762184    0.500491344068    0.000000000000
    0.968009595209    0.607711919914    0.000000000000
    0.967472873255    0.712296318217    0.000000000000
    0.967350801146    0.834984266290    0.000000000000
    0.964163508818    0.943912303838    0.000000000000
