POSCAR
1.0
     21.338865280200	     0.000000000000	     0.000000000000	
     0.000000000000	     22.176000000000	     0.000000000000	
     0.000000000000	     0.000000000000	     20.000000000000	
    C
   180
Direct
    0.033745637939    0.055344031675    0.000000000000
    0.034586608178    0.168330891218    0.000000000000
    0.033360507758    0.279193225867    0.000000000000
    0.033661292148    0.389240803271    0.000000000000
    0.024050255550    0.505552472719    0.000000000000
    0.033735803923    0.611325841203    0.000000000000
    0.033825462342    0.720788552351    0.000000000000
    0.035242645800    0.834059431648    0.000000000000
    0.036890516821    0.941172066324    0.000000000000
    0.231883273603    0.059242507730    0.000000000000
    0.229405484278    0.172999154340    0.000000000000
    0.228412447718    0.276403276588    0.000000000000
    0.227607252880    0.390924397859    0.000000000000
    0.233297137733    0.497928233723    0.000000000000
    0.231025681147    0.610971140043    0.000000000000
    0.235903095361    0.718992997150    0.000000000000
    0.232979495812    0.835665489080    0.000000000000
    0.231276711357    0.943409891935    0.000000000000
    0.433461176454    0.059283139959    0.000000000000
    0.434443245865    0.170495588886    0.000000000000
    0.435493188804    0.272032493291    0.000000000000
    0.434393214102    0.388120695825    0.000000000000
    0.438425383475    0.502292112169    0.000000000000
    0.434357295034    0.615874281865    0.000000000000
    0.434053149586    0.720413238456    0.000000000000
    0.438527340274    0.829986430766    0.000000000000
    0.432863445019    0.947948826490    0.000000000000
    0.632528178571    0.053926720540    0.000000000000
    0.642635015204    0.164177799206    0.000000000000
    0.629297339612    0.276774682428    0.000000000000
    0.627087358828    0.390196519367    0.000000000000
    0.629233925504    0.501072613679    0.000000000000
    0.623414843270    0.612799821280    0.000000000000
    0.631665100816    0.723424539578    0.000000000000
    0.634447420427    0.832502204824    0.000000000000
    0.633800142375    0.942974673521    0.000000000000
    0.835381873842    0.059934405443    0.000000000000
    0.832279673105    0.170970651963    0.000000000000
    0.835337231460    0.274458866423    0.000000000000
    0.831949626287    0.388630396516    0.000000000000
    0.834197021193    0.500913525389    0.000000000000
    0.831550611207    0.612671841623    0.000000000000
    0.835045186180    0.724496725001    0.000000000000
    0.839324924986    0.838763012870    0.000000000000
    0.832797028715    0.946579481421    0.000000000000
    0.134912242603    0.005340695029    0.000000000000
    0.134349991717    0.111961542994    0.000000000000
    0.133633530261    0.221240827301    0.000000000000
    0.137544689351    0.335787893684    0.000000000000
    0.132220227731    0.445146013785    0.000000000000
    0.131522274280    0.551641533796    0.000000000000
    0.129943357558    0.664621454911    0.000000000000
    0.128793859002    0.782390416586    0.000000000000
    0.137515581908    0.888250079067    0.000000000000
    0.334673310234    -0.001616824765    0.000000000000
    0.338385378008    0.112878942719    0.000000000000
    0.331595995620    0.222387931768    0.000000000000
    0.333958251253    0.328760317452    0.000000000000
    0.330983868469    0.446328657357    0.000000000000
    0.336767296295    0.557408098637    0.000000000000
    0.332572352051    0.661863436010    0.000000000000
    0.335766597709    0.776665797088    0.000000000000
    0.331685114460    0.889747200286    0.000000000000
    0.532883958464    0.001367470324    0.000000000000
    0.530950853982    0.110469162852    0.000000000000
    0.539284340798    0.227992372580    0.000000000000
    0.539016808764    0.332922181970    0.000000000000
    0.533676724115    0.445318118319    0.000000000000
    0.526776625267    0.555443641357    0.000000000000
    0.535535000069    0.660566944495    0.000000000000
    0.534766079076    0.777235879035    0.000000000000
    0.523047979166    0.889385429136    0.000000000000
    0.729932936926    -0.001427659640    0.000000000000
    0.733965801084    0.110131288407    0.000000000000
    0.733642867513    0.223535678233    0.000000000000
    0.733473842454    0.332082066304    0.000000000000
    0.736914307617    0.444233020152    0.000000000000
    0.733014196299    0.559996985214    0.000000000000
    0.732385333628    0.668362981670    0.000000000000
    0.736981663003    0.778468374809    0.000000000000
    0.739795264458    0.887831027621    0.000000000000
    0.933013131938    -0.004002011360    0.000000000000
    0.935630734452    0.111414577680    0.000000000000
    0.935028818040    0.221431010507    0.000000000000
    0.938113117997    0.337192136452    0.000000000000
    0.934064407136    0.446210787673    0.000000000000
    0.933991418245    0.557041989227    0.000000000000
    0.935260830186    0.675759152424    0.000000000000
    0.938444182945    0.777507106982    0.000000000000
    0.933719957932    0.892477835644    0.000000000000
    0.068417523868    -0.000356345685    0.000000000000
    0.064081444241    0.116100545813    0.000000000000
    0.065015100480    0.219865721300    0.000000000000
    0.066147059938    0.336646678830    0.000000000000
    0.066759382823    0.445416104927    0.000000000000
    0.064633669927    0.557972090519    0.000000000000
    0.072168956845    0.666130550498    0.000000000000
    0.065122261046    0.768736444870    0.000000000000
    0.070767425633    0.893543090536    0.000000000000
    0.267513606517    -0.000397486871    0.000000000000
    0.266263390174    0.116131803987    0.000000000000
    0.267498663008    0.226168098733    0.000000000000
    0.267500948767    0.335054559883    0.000000000000
    0.266096466655    0.444572459525    0.000000000000
    0.268898776622    0.557413204860    0.000000000000
    0.262194298672    0.664660583868    0.000000000000
    0.271569580419    0.771896791648    0.000000000000
    0.267351775740    0.893707259359    0.000000000000
    0.468160370780    0.000903315038    0.000000000000
    0.464832627059    0.113375511089    0.000000000000
    0.462091062412    0.227702767475    0.000000000000
    0.466708294816    0.333727751683    0.000000000000
    0.471168387569    0.445280292557    0.000000000000
    0.466676367155    0.554001388645    0.000000000000
    0.467130578662    0.660742581865    0.000000000000
    0.462908428993    0.777839032810    0.000000000000
    0.466857060387    0.882535030643    0.000000000000
    0.664378287275    0.000056082147    0.000000000000
    0.665109536284    0.105414530555    0.000000000000
    0.665250555615    0.221950175555    0.000000000000
    0.672494914847    0.334057690489    0.000000000000
    0.665432437014    0.443272335406    0.000000000000
    0.662882398973    0.558038580724    0.000000000000
    0.670106260554    0.667529321027    0.000000000000
    0.672920962439    0.776736568037    0.000000000000
    0.667114930927    0.891178767862    0.000000000000
    0.870234790884    0.001511739683    0.000000000000
    0.862397598599    0.112203202692    0.000000000000
    0.862787865336    0.218241615650    0.000000000000
    0.867113935530    0.335490833445    0.000000000000
    0.857434944471    0.448098091263    0.000000000000
    0.868435846243    0.554458128294    0.000000000000
    0.870609404262    0.670314670056    0.000000000000
    0.869214242368    0.775387841901    0.000000000000
    0.871680021567    0.889663447106    0.000000000000
    0.166046302464    0.051916983766    0.000000000000
    0.164551166204    0.169044875576    0.000000000000
    0.170997932703    0.277083547088    0.000000000000
    0.164826433435    0.387199668436    0.000000000000
    0.170456520499    0.501500532560    0.000000000000
    0.166987057103    0.610511678128    0.000000000000
    0.160481292085    0.725679217839    0.000000000000
    0.165420860179    0.834844168060    0.000000000000
    0.162556678075    0.941140225575    0.000000000000
    0.365159011871    0.054332348924    0.000000000000
    0.369212959753    0.164891426809    0.000000000000
    0.363162145577    0.278380107025    0.000000000000
    0.364800259202    0.398010070913    0.000000000000
    0.368217746286    0.496418525945    0.000000000000
    0.368040891708    0.613421309977    0.000000000000
    0.366108639786    0.722715618572    0.000000000000
    0.365844880777    0.832509590764    0.000000000000
    0.366820063059    0.940703797650    0.000000000000
    0.564941182226    0.054699551905    0.000000000000
    0.564112404795    0.166298073529    0.000000000000
    0.566578643011    0.282309406451    0.000000000000
    0.571182718068    0.391063086826    0.000000000000
    0.567598474169    0.503276206857    0.000000000000
    0.561115820340    0.613616816513    0.000000000000
    0.566138003077    0.723843511969    0.000000000000
    0.564055739452    0.839117975633    0.000000000000
    0.565458977777    0.942131060242    0.000000000000
    0.764991917723    0.054676021927    0.000000000000
    0.765604042556    0.162359374038    0.000000000000
    0.768024030820    0.279612942794    0.000000000000
    0.764928511508    0.390231895489    0.000000000000
    0.767968724324    0.496484873316    0.000000000000
    0.762090844547    0.611569069958    0.000000000000
    0.760368331420    0.724409847426    0.000000000000
    0.767796990654    0.834796349653    0.000000000000
    0.768704118897    0.944763707922    0.000000000000
    0.961294087430    0.060263028822    0.000000000000
    0.965761070394    0.170608246355    0.000000000000
    0.966683517307    0.281084260900    0.000000000000
    0.965051582508    0.391381732118    0.000000000000
    0.966992250254    0.496575207900    0.000000000000
    0.967115749629    0.611295041482    0.000000000000
    0.968355052628    0.722366629466    0.000000000000
    0.966180255981    0.830849498889    0.000000000000
    0.966528347424    0.943993173065    0.000000000000
