C4
1.0
       21.3388652802         0.0000000000         0.0000000000
        0.0000000000        22.1760000000         0.0000000000
        0.0000000000         0.0000000000        20.0000000000
    C
  180
Direct
     0.033333201         0.055555559         0.000000000
     0.033333201         0.166666670         0.000000000
     0.033333201         0.277777787         0.000000000
     0.033333201         0.388888894         0.000000000
     0.033333201         0.500000000         0.000000000
     0.033333201         0.611111106         0.000000000
     0.033333201         0.722222213         0.000000000
     0.033333201         0.833333276         0.000000000
     0.033333201         0.944444425         0.000000000
     0.233333208         0.055555559         0.000000000
     0.233333208         0.166666670         0.000000000
     0.233333208         0.277777787         0.000000000
     0.233333208         0.388888894         0.000000000
     0.233333208         0.500000000         0.000000000
     0.233333208         0.611111106         0.000000000
     0.233333208         0.722222213         0.000000000
     0.233333208         0.833333276         0.000000000
     0.233333208         0.944444425         0.000000000
     0.433333190         0.055555559         0.000000000
     0.433333190         0.166666670         0.000000000
     0.433333190         0.277777787         0.000000000
     0.433333190         0.388888894         0.000000000
     0.433333190         0.500000000         0.000000000
     0.433333190         0.611111106         0.000000000
     0.433333190         0.722222213         0.000000000
     0.433333190         0.833333276         0.000000000
     0.433333190         0.944444425         0.000000000
     0.633333217         0.055555559         0.000000000
     0.633333217         0.166666670         0.000000000
     0.633333217         0.277777787         0.000000000
     0.633333217         0.388888894         0.000000000
     0.633333217         0.500000000         0.000000000
     0.633333217         0.611111106         0.000000000
     0.633333217         0.722222213         0.000000000
     0.633333217         0.833333276         0.000000000
     0.633333217         0.944444425         0.000000000
     0.833333199         0.055555559         0.000000000
     0.833333199         0.166666670         0.000000000
     0.833333199         0.277777787         0.000000000
     0.833333199         0.388888894         0.000000000
     0.833333199         0.500000000         0.000000000
     0.833333199         0.611111106         0.000000000
     0.833333199         0.722222213         0.000000000
     0.833333199         0.833333276         0.000000000
     0.833333199         0.944444425         0.000000000
     0.133333396         0.000000000         0.000000000
     0.133333396         0.111111117         0.000000000
     0.133333396         0.222222234         0.000000000
     0.133333396         0.333333341         0.000000000
     0.133333396         0.444444468         0.000000000
     0.133333396         0.555555575         0.000000000
     0.133333396         0.666666681         0.000000000
     0.133333396         0.777777787         0.000000000
     0.133333396         0.888888937         0.000000000
     0.333333400         0.000000000         0.000000000
     0.333333400         0.111111117         0.000000000
     0.333333400         0.222222234         0.000000000
     0.333333400         0.333333341         0.000000000
     0.333333400         0.444444468         0.000000000
     0.333333400         0.555555575         0.000000000
     0.333333400         0.666666681         0.000000000
     0.333333400         0.777777787         0.000000000
     0.333333400         0.888888937         0.000000000
     0.533333405         0.000000000         0.000000000
     0.533333405         0.111111117         0.000000000
     0.533333405         0.222222234         0.000000000
     0.533333405         0.333333341         0.000000000
     0.533333405         0.444444468         0.000000000
     0.533333405         0.555555575         0.000000000
     0.533333405         0.666666681         0.000000000
     0.533333405         0.777777787         0.000000000
     0.533333405         0.888888937         0.000000000
     0.733333387         0.000000000         0.000000000
     0.733333387         0.111111117         0.000000000
     0.733333387         0.222222234         0.000000000
     0.733333387         0.333333341         0.000000000
     0.733333387         0.444444468         0.000000000
     0.733333387         0.555555575         0.000000000
     0.733333387         0.666666681         0.000000000
     0.733333387         0.777777787         0.000000000
     0.733333387         0.888888937         0.000000000
     0.933333369         0.000000000         0.000000000
     0.933333369         0.111111117         0.000000000
     0.933333369         0.222222234         0.000000000
     0.933333369         0.333333341         0.000000000
     0.933333369         0.444444468         0.000000000
     0.933333369         0.555555575         0.000000000
     0.933333369         0.666666681         0.000000000
     0.933333369         0.777777787         0.000000000
     0.933333369         0.888888937         0.000000000
     0.066666597         0.000000000         0.000000000
     0.066666597         0.111111117         0.000000000
     0.066666597         0.222222234         0.000000000
     0.066666597         0.333333341         0.000000000
     0.066666597         0.444444468         0.000000000
     0.066666597         0.555555575         0.000000000
     0.066666597         0.666666681         0.000000000
     0.066666597         0.777777787         0.000000000
     0.066666597         0.888888937         0.000000000
     0.266666591         0.000000000         0.000000000
     0.266666591         0.111111117         0.000000000
     0.266666591         0.222222234         0.000000000
     0.266666591         0.333333341         0.000000000
     0.266666591         0.444444468         0.000000000
     0.266666591         0.555555575         0.000000000
     0.266666591         0.666666681         0.000000000
     0.266666591         0.777777787         0.000000000
     0.266666591         0.888888937         0.000000000
     0.466666595         0.000000000         0.000000000
     0.466666595         0.111111117         0.000000000
     0.466666595         0.222222234         0.000000000
     0.466666595         0.333333341         0.000000000
     0.466666595         0.444444468         0.000000000
     0.466666595         0.555555575         0.000000000
     0.466666595         0.666666681         0.000000000
     0.466666595         0.777777787         0.000000000
     0.466666595         0.888888937         0.000000000
     0.666666577         0.000000000         0.000000000
     0.666666577         0.111111117         0.000000000
     0.666666577         0.222222234         0.000000000
     0.666666577         0.333333341         0.000000000
     0.666666577         0.444444468         0.000000000
     0.666666577         0.555555575         0.000000000
     0.666666577         0.666666681         0.000000000
     0.666666577         0.777777787         0.000000000
     0.666666577         0.888888937         0.000000000
     0.866666649         0.000000000         0.000000000
     0.866666649         0.111111117         0.000000000
     0.866666649         0.222222234         0.000000000
     0.866666649         0.333333341         0.000000000
     0.866666649         0.444444468         0.000000000
     0.866666649         0.555555575         0.000000000
     0.866666649         0.666666681         0.000000000
     0.866666649         0.777777787         0.000000000
     0.866666649         0.888888937         0.000000000
     0.166666600         0.055555559         0.000000000
     0.166666600         0.166666670         0.000000000
     0.166666600         0.277777787         0.000000000
     0.166666600         0.388888894         0.000000000
     0.166666600         0.500000000         0.000000000
     0.166666600         0.611111106         0.000000000
     0.166666600         0.722222213         0.000000000
     0.166666600         0.833333276         0.000000000
     0.166666600         0.944444425         0.000000000
     0.366666582         0.055555559         0.000000000
     0.366666582         0.166666670         0.000000000
     0.366666582         0.277777787         0.000000000
     0.366666582         0.388888894         0.000000000
     0.366666582         0.500000000         0.000000000
     0.366666582         0.611111106         0.000000000
     0.366666582         0.722222213         0.000000000
     0.366666582         0.833333276         0.000000000
     0.366666582         0.944444425         0.000000000
     0.566666586         0.055555559         0.000000000
     0.566666586         0.166666670         0.000000000
     0.566666586         0.277777787         0.000000000
     0.566666586         0.388888894         0.000000000
     0.566666586         0.500000000         0.000000000
     0.566666586         0.611111106         0.000000000
     0.566666586         0.722222213         0.000000000
     0.566666586         0.833333276         0.000000000
     0.566666586         0.944444425         0.000000000
     0.766666568         0.055555559         0.000000000
     0.766666568         0.166666670         0.000000000
     0.766666568         0.277777787         0.000000000
     0.766666568         0.388888894         0.000000000
     0.766666568         0.500000000         0.000000000
     0.766666568         0.611111106         0.000000000
     0.766666568         0.722222213         0.000000000
     0.766666568         0.833333276         0.000000000
     0.766666568         0.944444425         0.000000000
     0.966666550         0.055555559         0.000000000
     0.966666550         0.166666670         0.000000000
     0.966666550         0.277777787         0.000000000
     0.966666550         0.388888894         0.000000000
     0.966666550         0.500000000         0.000000000
     0.966666550         0.611111106         0.000000000
     0.966666550         0.722222213         0.000000000
     0.966666550         0.833333276         0.000000000
     0.966666550         0.944444425         0.000000000
